NAME          
ROWS
 N  OBJ
 L  c1
 L  c2
 L  c3
 L  c4
 L  c5
COLUMNS
    MARKER    'MARKER'                 'INTORG'
    x[1]      c1        463
    x[1]      c2        254
    x[1]      c3        997
    x[1]      c4        253
    x[1]      c5        957
    x[1]      OBJ       -805
    x[2]      c1        591
    x[2]      c2        49
    x[2]      c3        348
    x[2]      c4        182
    x[2]      c5        976
    x[2]      OBJ       -663
    x[3]      c1        295
    x[3]      c2        409
    x[3]      c3        603
    x[3]      c4        859
    x[3]      c5        25
    x[3]      OBJ       -755
    x[4]      c1        639
    x[4]      c2        805
    x[4]      c3        412
    x[4]      c4        140
    x[4]      c5        802
    x[4]      OBJ       -61
    x[5]      c1        469
    x[5]      c2        866
    x[5]      c3        324
    x[5]      c4        848
    x[5]      c5        26
    x[5]      OBJ       -65
    x[6]      c1        342
    x[6]      c2        952
    x[6]      c3        500
    x[6]      c4        25
    x[6]      c5        239
    x[6]      OBJ       -444
    x[7]      c1        717
    x[7]      c2        7
    x[7]      c3        48
    x[7]      c4        32
    x[7]      c5        272
    x[7]      OBJ       -651
    x[8]      c1        459
    x[8]      c2        526
    x[8]      c3        901
    x[8]      c4        899
    x[8]      c5        938
    x[8]      OBJ       -2
    x[9]      c1        714
    x[9]      c2        357
    x[9]      c3        279
    x[9]      c4        310
    x[9]      c5        78
    x[9]      OBJ       -996
    x[10]     c1        612
    x[10]     c2        660
    x[10]     c3        394
    x[10]     c4        712
    x[10]     c5        358
    x[10]     OBJ       -200
    x[11]     c1        263
    x[11]     c2        168
    x[11]     c3        818
    x[11]     c4        236
    x[11]     c5        414
    x[11]     OBJ       -462
    x[12]     c1        126
    x[12]     c2        944
    x[12]     c3        750
    x[12]     c4        764
    x[12]     c5        786
    x[12]     OBJ       -659
    x[13]     c1        595
    x[13]     c2        106
    x[13]     c3        244
    x[13]     c4        126
    x[13]     c5        872
    x[13]     OBJ       -708
    x[14]     c1        717
    x[14]     c2        699
    x[14]     c3        147
    x[14]     c4        318
    x[14]     c5        974
    x[14]     OBJ       -664
    x[15]     c1        215
    x[15]     c2        307
    x[15]     c3        823
    x[15]     c4        119
    x[15]     c5        877
    x[15]     OBJ       -742
    x[16]     c1        616
    x[16]     c2        808
    x[16]     c3        296
    x[16]     c4        211
    x[16]     c5        699
    x[16]     OBJ       -636
    x[17]     c1        311
    x[17]     c2        120
    x[17]     c3        439
    x[17]     c4        313
    x[17]     c5        49
    x[17]     OBJ       -634
    x[18]     c1        896
    x[18]     c2        537
    x[18]     c3        37
    x[18]     c4        128
    x[18]     c5        952
    x[18]     OBJ       -382
    x[19]     c1        753
    x[19]     c2        218
    x[19]     c3        464
    x[19]     c4        459
    x[19]     c5        84
    x[19]     OBJ       -607
    x[20]     c1        991
    x[20]     c2        878
    x[20]     c3        426
    x[20]     c4        405
    x[20]     c5        929
    x[20]     OBJ       -296
    x[21]     c1        550
    x[21]     c2        123
    x[21]     c3        348
    x[21]     c4        859
    x[21]     c5        761
    x[21]     OBJ       -211
    x[22]     c1        453
    x[22]     c2        506
    x[22]     c3        144
    x[22]     c4        909
    x[22]     c5        696
    x[22]     OBJ       -131
    x[23]     c1        762
    x[23]     c2        138
    x[23]     c3        565
    x[23]     c4        365
    x[23]     c5        752
    x[23]     OBJ       -788
    x[24]     c1        376
    x[24]     c2        261
    x[24]     c3        965
    x[24]     c4        388
    x[24]     c5        934
    x[24]     OBJ       -274
    x[25]     c1        484
    x[25]     c2        747
    x[25]     c3        726
    x[25]     c4        867
    x[25]     c5        242
    x[25]     OBJ       -563
    x[26]     c1        267
    x[26]     c2        201
    x[26]     c3        933
    x[26]     c4        339
    x[26]     c5        931
    x[26]     OBJ       -387
    x[27]     c1        506
    x[27]     c2        656
    x[27]     c3        820
    x[27]     c4        759
    x[27]     c5        691
    x[27]     OBJ       -487
    x[28]     c1        980
    x[28]     c2        374
    x[28]     c3        495
    x[28]     c4        119
    x[28]     c5        771
    x[28]     OBJ       -589
    x[29]     c1        305
    x[29]     c2        717
    x[29]     c3        349
    x[29]     c4        6
    x[29]     c5        63
    x[29]     OBJ       -618
    x[30]     c1        998
    x[30]     c2        204
    x[30]     c3        249
    x[30]     c4        576
    x[30]     c5        27
    x[30]     OBJ       -92
    x[31]     c1        598
    x[31]     c2        715
    x[31]     c3        482
    x[31]     c4        964
    x[31]     c5        403
    x[31]     OBJ       -778
    x[32]     c1        30
    x[32]     c2        74
    x[32]     c3        679
    x[32]     c4        496
    x[32]     c5        204
    x[32]     OBJ       -757
    x[33]     c1        469
    x[33]     c2        681
    x[33]     c3        402
    x[33]     c4        890
    x[33]     c5        625
    x[33]     OBJ       -256
    x[34]     c1        337
    x[34]     c2        409
    x[34]     c3        768
    x[34]     c4        444
    x[34]     c5        414
    x[34]     OBJ       -743
    x[35]     c1        903
    x[35]     c2        839
    x[35]     c3        500
    x[35]     c4        250
    x[35]     c5        525
    x[35]     OBJ       -713
    x[36]     c1        661
    x[36]     c2        19
    x[36]     c3        541
    x[36]     c4        285
    x[36]     c5        560
    x[36]     OBJ       -819
    x[37]     c1        1000
    x[37]     c2        667
    x[37]     c3        752
    x[37]     c4        422
    x[37]     c5        449
    x[37]     OBJ       -785
    x[38]     c1        555
    x[38]     c2        812
    x[38]     c3        212
    x[38]     c4        707
    x[38]     c5        41
    x[38]     OBJ       -818
    x[39]     c1        880
    x[39]     c2        906
    x[39]     c3        618
    x[39]     c4        976
    x[39]     c5        170
    x[39]     OBJ       -76
    x[40]     c1        187
    x[40]     c2        931
    x[40]     c3        787
    x[40]     c4        392
    x[40]     c5        603
    x[40]     OBJ       -678
    x[41]     c1        922
    x[41]     c2        191
    x[41]     c3        608
    x[41]     c4        715
    x[41]     c5        350
    x[41]     OBJ       -617
    x[42]     c1        957
    x[42]     c2        923
    x[42]     c3        413
    x[42]     c4        46
    x[42]     c5        138
    x[42]     OBJ       -572
    x[43]     c1        412
    x[43]     c2        426
    x[43]     c3        756
    x[43]     c4        964
    x[43]     c5        51
    x[43]     OBJ       -421
    x[44]     c1        749
    x[44]     c2        447
    x[44]     c3        94
    x[44]     c4        289
    x[44]     c5        738
    x[44]     OBJ       -434
    x[45]     c1        141
    x[45]     c2        300
    x[45]     c3        391
    x[45]     c4        30
    x[45]     c5        179
    x[45]     OBJ       -668
    x[46]     c1        492
    x[46]     c2        264
    x[46]     c3        985
    x[46]     c4        353
    x[46]     c5        121
    x[46]     OBJ       -982
    x[47]     c1        393
    x[47]     c2        460
    x[47]     c3        287
    x[47]     c4        137
    x[47]     c5        234
    x[47]     OBJ       -589
    x[48]     c1        856
    x[48]     c2        834
    x[48]     c3        458
    x[48]     c4        511
    x[48]     c5        461
    x[48]     OBJ       -705
    x[49]     c1        135
    x[49]     c2        465
    x[49]     c3        75
    x[49]     c4        286
    x[49]     c5        664
    x[49]     OBJ       -755
    x[50]     c1        312
    x[50]     c2        541
    x[50]     c3        500
    x[50]     c4        981
    x[50]     c5        347
    x[50]     OBJ       -626
RHS
    rhs       c1        13727
    rhs       c2        12250
    rhs       c3        12576
    rhs       c4        11332
    rhs       c5        12226
RANGES
BOUNDS
 BV bounds    x[1]
 BV bounds    x[2]
 BV bounds    x[3]
 BV bounds    x[4]
 BV bounds    x[5]
 BV bounds    x[6]
 BV bounds    x[7]
 BV bounds    x[8]
 BV bounds    x[9]
 BV bounds    x[10]
 BV bounds    x[11]
 BV bounds    x[12]
 BV bounds    x[13]
 BV bounds    x[14]
 BV bounds    x[15]
 BV bounds    x[16]
 BV bounds    x[17]
 BV bounds    x[18]
 BV bounds    x[19]
 BV bounds    x[20]
 BV bounds    x[21]
 BV bounds    x[22]
 BV bounds    x[23]
 BV bounds    x[24]
 BV bounds    x[25]
 BV bounds    x[26]
 BV bounds    x[27]
 BV bounds    x[28]
 BV bounds    x[29]
 BV bounds    x[30]
 BV bounds    x[31]
 BV bounds    x[32]
 BV bounds    x[33]
 BV bounds    x[34]
 BV bounds    x[35]
 BV bounds    x[36]
 BV bounds    x[37]
 BV bounds    x[38]
 BV bounds    x[39]
 BV bounds    x[40]
 BV bounds    x[41]
 BV bounds    x[42]
 BV bounds    x[43]
 BV bounds    x[44]
 BV bounds    x[45]
 BV bounds    x[46]
 BV bounds    x[47]
 BV bounds    x[48]
 BV bounds    x[49]
 BV bounds    x[50]
ENDATA
